x = 17;
y = 19;
c = 66;
n = 50;

p = [99  37  19  73  35  91  62  92  10  49  50  73  79  91  44  24  90  20  65  17  10  60  43  19  49  40  86  84  15  95  59  30  18  77  29  26  20  64  27  28  97  84  38  73  63  44  60  10  33  34];
w = [6  7  7  4  8  2  5  2  1  7  8  10  7  10  6  9  3  3  6  3  3  5  6  5  3  7  5  10  3  10  3  9  3  8  2  8  8  9  4  1  2  5  9  6  9  4  1  10  2  1];
s = [11  4  14  9  14  12  4  1  9  2  7  8  13  4  8  13  15  2  13  15  7  8  14  11  17  11  3  2  10  1  11  11  17  14  5  9  6  2  1  12  16  14  17  2  1  12  17  9  4  13];
